c description: Graph 4-Colorability of graph: 
c generator: CNFgen (0.9.0)
c copyright: (C) 2012-2020 Massimo Lauria <massimo.lauria@uniroma1.it>
c url: https://massimolauria.net/cnfgen
c
p cnf 200 1126
1 2 3 4 0
-1 -2 0
-1 -3 0
-1 -4 0
-2 -3 0
-2 -4 0
-3 -4 0
5 6 7 8 0
-5 -6 0
-5 -7 0
-5 -8 0
-6 -7 0
-6 -8 0
-7 -8 0
9 10 11 12 0
-9 -10 0
-9 -11 0
-9 -12 0
-10 -11 0
-10 -12 0
-11 -12 0
13 14 15 16 0
-13 -14 0
-13 -15 0
-13 -16 0
-14 -15 0
-14 -16 0
-15 -16 0
17 18 19 20 0
-17 -18 0
-17 -19 0
-17 -20 0
-18 -19 0
-18 -20 0
-19 -20 0
21 22 23 24 0
-21 -22 0
-21 -23 0
-21 -24 0
-22 -23 0
-22 -24 0
-23 -24 0
25 26 27 28 0
-25 -26 0
-25 -27 0
-25 -28 0
-26 -27 0
-26 -28 0
-27 -28 0
29 30 31 32 0
-29 -30 0
-29 -31 0
-29 -32 0
-30 -31 0
-30 -32 0
-31 -32 0
33 34 35 36 0
-33 -34 0
-33 -35 0
-33 -36 0
-34 -35 0
-34 -36 0
-35 -36 0
37 38 39 40 0
-37 -38 0
-37 -39 0
-37 -40 0
-38 -39 0
-38 -40 0
-39 -40 0
41 42 43 44 0
-41 -42 0
-41 -43 0
-41 -44 0
-42 -43 0
-42 -44 0
-43 -44 0
45 46 47 48 0
-45 -46 0
-45 -47 0
-45 -48 0
-46 -47 0
-46 -48 0
-47 -48 0
49 50 51 52 0
-49 -50 0
-49 -51 0
-49 -52 0
-50 -51 0
-50 -52 0
-51 -52 0
53 54 55 56 0
-53 -54 0
-53 -55 0
-53 -56 0
-54 -55 0
-54 -56 0
-55 -56 0
57 58 59 60 0
-57 -58 0
-57 -59 0
-57 -60 0
-58 -59 0
-58 -60 0
-59 -60 0
61 62 63 64 0
-61 -62 0
-61 -63 0
-61 -64 0
-62 -63 0
-62 -64 0
-63 -64 0
65 66 67 68 0
-65 -66 0
-65 -67 0
-65 -68 0
-66 -67 0
-66 -68 0
-67 -68 0
69 70 71 72 0
-69 -70 0
-69 -71 0
-69 -72 0
-70 -71 0
-70 -72 0
-71 -72 0
73 74 75 76 0
-73 -74 0
-73 -75 0
-73 -76 0
-74 -75 0
-74 -76 0
-75 -76 0
77 78 79 80 0
-77 -78 0
-77 -79 0
-77 -80 0
-78 -79 0
-78 -80 0
-79 -80 0
81 82 83 84 0
-81 -82 0
-81 -83 0
-81 -84 0
-82 -83 0
-82 -84 0
-83 -84 0
85 86 87 88 0
-85 -86 0
-85 -87 0
-85 -88 0
-86 -87 0
-86 -88 0
-87 -88 0
89 90 91 92 0
-89 -90 0
-89 -91 0
-89 -92 0
-90 -91 0
-90 -92 0
-91 -92 0
93 94 95 96 0
-93 -94 0
-93 -95 0
-93 -96 0
-94 -95 0
-94 -96 0
-95 -96 0
97 98 99 100 0
-97 -98 0
-97 -99 0
-97 -100 0
-98 -99 0
-98 -100 0
-99 -100 0
101 102 103 104 0
-101 -102 0
-101 -103 0
-101 -104 0
-102 -103 0
-102 -104 0
-103 -104 0
105 106 107 108 0
-105 -106 0
-105 -107 0
-105 -108 0
-106 -107 0
-106 -108 0
-107 -108 0
109 110 111 112 0
-109 -110 0
-109 -111 0
-109 -112 0
-110 -111 0
-110 -112 0
-111 -112 0
113 114 115 116 0
-113 -114 0
-113 -115 0
-113 -116 0
-114 -115 0
-114 -116 0
-115 -116 0
117 118 119 120 0
-117 -118 0
-117 -119 0
-117 -120 0
-118 -119 0
-118 -120 0
-119 -120 0
121 122 123 124 0
-121 -122 0
-121 -123 0
-121 -124 0
-122 -123 0
-122 -124 0
-123 -124 0
125 126 127 128 0
-125 -126 0
-125 -127 0
-125 -128 0
-126 -127 0
-126 -128 0
-127 -128 0
129 130 131 132 0
-129 -130 0
-129 -131 0
-129 -132 0
-130 -131 0
-130 -132 0
-131 -132 0
133 134 135 136 0
-133 -134 0
-133 -135 0
-133 -136 0
-134 -135 0
-134 -136 0
-135 -136 0
137 138 139 140 0
-137 -138 0
-137 -139 0
-137 -140 0
-138 -139 0
-138 -140 0
-139 -140 0
141 142 143 144 0
-141 -142 0
-141 -143 0
-141 -144 0
-142 -143 0
-142 -144 0
-143 -144 0
145 146 147 148 0
-145 -146 0
-145 -147 0
-145 -148 0
-146 -147 0
-146 -148 0
-147 -148 0
149 150 151 152 0
-149 -150 0
-149 -151 0
-149 -152 0
-150 -151 0
-150 -152 0
-151 -152 0
153 154 155 156 0
-153 -154 0
-153 -155 0
-153 -156 0
-154 -155 0
-154 -156 0
-155 -156 0
157 158 159 160 0
-157 -158 0
-157 -159 0
-157 -160 0
-158 -159 0
-158 -160 0
-159 -160 0
161 162 163 164 0
-161 -162 0
-161 -163 0
-161 -164 0
-162 -163 0
-162 -164 0
-163 -164 0
165 166 167 168 0
-165 -166 0
-165 -167 0
-165 -168 0
-166 -167 0
-166 -168 0
-167 -168 0
169 170 171 172 0
-169 -170 0
-169 -171 0
-169 -172 0
-170 -171 0
-170 -172 0
-171 -172 0
173 174 175 176 0
-173 -174 0
-173 -175 0
-173 -176 0
-174 -175 0
-174 -176 0
-175 -176 0
177 178 179 180 0
-177 -178 0
-177 -179 0
-177 -180 0
-178 -179 0
-178 -180 0
-179 -180 0
181 182 183 184 0
-181 -182 0
-181 -183 0
-181 -184 0
-182 -183 0
-182 -184 0
-183 -184 0
185 186 187 188 0
-185 -186 0
-185 -187 0
-185 -188 0
-186 -187 0
-186 -188 0
-187 -188 0
189 190 191 192 0
-189 -190 0
-189 -191 0
-189 -192 0
-190 -191 0
-190 -192 0
-191 -192 0
193 194 195 196 0
-193 -194 0
-193 -195 0
-193 -196 0
-194 -195 0
-194 -196 0
-195 -196 0
197 198 199 200 0
-197 -198 0
-197 -199 0
-197 -200 0
-198 -199 0
-198 -200 0
-199 -200 0
-1 -29 0
-2 -30 0
-3 -31 0
-4 -32 0
-1 -41 0
-2 -42 0
-3 -43 0
-4 -44 0
-1 -53 0
-2 -54 0
-3 -55 0
-4 -56 0
-1 -105 0
-2 -106 0
-3 -107 0
-4 -108 0
-1 -113 0
-2 -114 0
-3 -115 0
-4 -116 0
-1 -145 0
-2 -146 0
-3 -147 0
-4 -148 0
-1 -153 0
-2 -154 0
-3 -155 0
-4 -156 0
-1 -173 0
-2 -174 0
-3 -175 0
-4 -176 0
-1 -193 0
-2 -194 0
-3 -195 0
-4 -196 0
-5 -9 0
-6 -10 0
-7 -11 0
-8 -12 0
-5 -17 0
-6 -18 0
-7 -19 0
-8 -20 0
-5 -53 0
-6 -54 0
-7 -55 0
-8 -56 0
-5 -89 0
-6 -90 0
-7 -91 0
-8 -92 0
-5 -105 0
-6 -106 0
-7 -107 0
-8 -108 0
-5 -117 0
-6 -118 0
-7 -119 0
-8 -120 0
-5 -161 0
-6 -162 0
-7 -163 0
-8 -164 0
-5 -165 0
-6 -166 0
-7 -167 0
-8 -168 0
-5 -185 0
-6 -186 0
-7 -187 0
-8 -188 0
-5 -193 0
-6 -194 0
-7 -195 0
-8 -196 0
-9 -21 0
-10 -22 0
-11 -23 0
-12 -24 0
-9 -25 0
-10 -26 0
-11 -27 0
-12 -28 0
-9 -57 0
-10 -58 0
-11 -59 0
-12 -60 0
-9 -153 0
-10 -154 0
-11 -155 0
-12 -156 0
-9 -181 0
-10 -182 0
-11 -183 0
-12 -184 0
-13 -49 0
-14 -50 0
-15 -51 0
-16 -52 0
-13 -97 0
-14 -98 0
-15 -99 0
-16 -100 0
-13 -101 0
-14 -102 0
-15 -103 0
-16 -104 0
-13 -117 0
-14 -118 0
-15 -119 0
-16 -120 0
-13 -137 0
-14 -138 0
-15 -139 0
-16 -140 0
-13 -153 0
-14 -154 0
-15 -155 0
-16 -156 0
-17 -41 0
-18 -42 0
-19 -43 0
-20 -44 0
-17 -93 0
-18 -94 0
-19 -95 0
-20 -96 0
-17 -101 0
-18 -102 0
-19 -103 0
-20 -104 0
-17 -105 0
-18 -106 0
-19 -107 0
-20 -108 0
-17 -125 0
-18 -126 0
-19 -127 0
-20 -128 0
-17 -161 0
-18 -162 0
-19 -163 0
-20 -164 0
-21 -53 0
-22 -54 0
-23 -55 0
-24 -56 0
-21 -101 0
-22 -102 0
-23 -103 0
-24 -104 0
-21 -129 0
-22 -130 0
-23 -131 0
-24 -132 0
-21 -141 0
-22 -142 0
-23 -143 0
-24 -144 0
-21 -165 0
-22 -166 0
-23 -167 0
-24 -168 0
-21 -173 0
-22 -174 0
-23 -175 0
-24 -176 0
-21 -189 0
-22 -190 0
-23 -191 0
-24 -192 0
-25 -49 0
-26 -50 0
-27 -51 0
-28 -52 0
-25 -73 0
-26 -74 0
-27 -75 0
-28 -76 0
-25 -93 0
-26 -94 0
-27 -95 0
-28 -96 0
-25 -105 0
-26 -106 0
-27 -107 0
-28 -108 0
-25 -109 0
-26 -110 0
-27 -111 0
-28 -112 0
-25 -117 0
-26 -118 0
-27 -119 0
-28 -120 0
-25 -129 0
-26 -130 0
-27 -131 0
-28 -132 0
-25 -137 0
-26 -138 0
-27 -139 0
-28 -140 0
-25 -153 0
-26 -154 0
-27 -155 0
-28 -156 0
-25 -157 0
-26 -158 0
-27 -159 0
-28 -160 0
-25 -185 0
-26 -186 0
-27 -187 0
-28 -188 0
-25 -189 0
-26 -190 0
-27 -191 0
-28 -192 0
-29 -41 0
-30 -42 0
-31 -43 0
-32 -44 0
-29 -45 0
-30 -46 0
-31 -47 0
-32 -48 0
-29 -49 0
-30 -50 0
-31 -51 0
-32 -52 0
-29 -73 0
-30 -74 0
-31 -75 0
-32 -76 0
-29 -93 0
-30 -94 0
-31 -95 0
-32 -96 0
-29 -101 0
-30 -102 0
-31 -103 0
-32 -104 0
-29 -113 0
-30 -114 0
-31 -115 0
-32 -116 0
-29 -185 0
-30 -186 0
-31 -187 0
-32 -188 0
-29 -193 0
-30 -194 0
-31 -195 0
-32 -196 0
-33 -109 0
-34 -110 0
-35 -111 0
-36 -112 0
-33 -149 0
-34 -150 0
-35 -151 0
-36 -152 0
-33 -165 0
-34 -166 0
-35 -167 0
-36 -168 0
-33 -177 0
-34 -178 0
-35 -179 0
-36 -180 0
-33 -193 0
-34 -194 0
-35 -195 0
-36 -196 0
-37 -65 0
-38 -66 0
-39 -67 0
-40 -68 0
-37 -153 0
-38 -154 0
-39 -155 0
-40 -156 0
-37 -193 0
-38 -194 0
-39 -195 0
-40 -196 0
-41 -101 0
-42 -102 0
-43 -103 0
-44 -104 0
-41 -121 0
-42 -122 0
-43 -123 0
-44 -124 0
-41 -141 0
-42 -142 0
-43 -143 0
-44 -144 0
-41 -145 0
-42 -146 0
-43 -147 0
-44 -148 0
-41 -161 0
-42 -162 0
-43 -163 0
-44 -164 0
-45 -57 0
-46 -58 0
-47 -59 0
-48 -60 0
-45 -73 0
-46 -74 0
-47 -75 0
-48 -76 0
-45 -93 0
-46 -94 0
-47 -95 0
-48 -96 0
-45 -109 0
-46 -110 0
-47 -111 0
-48 -112 0
-45 -113 0
-46 -114 0
-47 -115 0
-48 -116 0
-45 -173 0
-46 -174 0
-47 -175 0
-48 -176 0
-45 -193 0
-46 -194 0
-47 -195 0
-48 -196 0
-49 -53 0
-50 -54 0
-51 -55 0
-52 -56 0
-49 -57 0
-50 -58 0
-51 -59 0
-52 -60 0
-49 -69 0
-50 -70 0
-51 -71 0
-52 -72 0
-49 -81 0
-50 -82 0
-51 -83 0
-52 -84 0
-49 -157 0
-50 -158 0
-51 -159 0
-52 -160 0
-53 -61 0
-54 -62 0
-55 -63 0
-56 -64 0
-53 -73 0
-54 -74 0
-55 -75 0
-56 -76 0
-53 -133 0
-54 -134 0
-55 -135 0
-56 -136 0
-53 -141 0
-54 -142 0
-55 -143 0
-56 -144 0
-53 -145 0
-54 -146 0
-55 -147 0
-56 -148 0
-53 -157 0
-54 -158 0
-55 -159 0
-56 -160 0
-53 -161 0
-54 -162 0
-55 -163 0
-56 -164 0
-53 -177 0
-54 -178 0
-55 -179 0
-56 -180 0
-57 -97 0
-58 -98 0
-59 -99 0
-60 -100 0
-57 -105 0
-58 -106 0
-59 -107 0
-60 -108 0
-57 -109 0
-58 -110 0
-59 -111 0
-60 -112 0
-57 -153 0
-58 -154 0
-59 -155 0
-60 -156 0
-57 -157 0
-58 -158 0
-59 -159 0
-60 -160 0
-57 -173 0
-58 -174 0
-59 -175 0
-60 -176 0
-57 -181 0
-58 -182 0
-59 -183 0
-60 -184 0
-61 -65 0
-62 -66 0
-63 -67 0
-64 -68 0
-61 -105 0
-62 -106 0
-63 -107 0
-64 -108 0
-61 -117 0
-62 -118 0
-63 -119 0
-64 -120 0
-61 -165 0
-62 -166 0
-63 -167 0
-64 -168 0
-65 -109 0
-66 -110 0
-67 -111 0
-68 -112 0
-65 -157 0
-66 -158 0
-67 -159 0
-68 -160 0
-65 -161 0
-66 -162 0
-67 -163 0
-68 -164 0
-65 -185 0
-66 -186 0
-67 -187 0
-68 -188 0
-65 -189 0
-66 -190 0
-67 -191 0
-68 -192 0
-65 -193 0
-66 -194 0
-67 -195 0
-68 -196 0
-69 -81 0
-70 -82 0
-71 -83 0
-72 -84 0
-69 -109 0
-70 -110 0
-71 -111 0
-72 -112 0
-69 -189 0
-70 -190 0
-71 -191 0
-72 -192 0
-73 -101 0
-74 -102 0
-75 -103 0
-76 -104 0
-73 -117 0
-74 -118 0
-75 -119 0
-76 -120 0
-73 -121 0
-74 -122 0
-75 -123 0
-76 -124 0
-73 -141 0
-74 -142 0
-75 -143 0
-76 -144 0
-73 -153 0
-74 -154 0
-75 -155 0
-76 -156 0
-73 -169 0
-74 -170 0
-75 -171 0
-76 -172 0
-77 -97 0
-78 -98 0
-79 -99 0
-80 -100 0
-77 -109 0
-78 -110 0
-79 -111 0
-80 -112 0
-77 -189 0
-78 -190 0
-79 -191 0
-80 -192 0
-77 -193 0
-78 -194 0
-79 -195 0
-80 -196 0
-81 -97 0
-82 -98 0
-83 -99 0
-84 -100 0
-81 -105 0
-82 -106 0
-83 -107 0
-84 -108 0
-81 -173 0
-82 -174 0
-83 -175 0
-84 -176 0
-81 -177 0
-82 -178 0
-83 -179 0
-84 -180 0
-85 -97 0
-86 -98 0
-87 -99 0
-88 -100 0
-85 -113 0
-86 -114 0
-87 -115 0
-88 -116 0
-85 -149 0
-86 -150 0
-87 -151 0
-88 -152 0
-85 -165 0
-86 -166 0
-87 -167 0
-88 -168 0
-85 -177 0
-86 -178 0
-87 -179 0
-88 -180 0
-89 -161 0
-90 -162 0
-91 -163 0
-92 -164 0
-89 -181 0
-90 -182 0
-91 -183 0
-92 -184 0
-89 -185 0
-90 -186 0
-91 -187 0
-92 -188 0
-89 -189 0
-90 -190 0
-91 -191 0
-92 -192 0
-93 -101 0
-94 -102 0
-95 -103 0
-96 -104 0
-93 -133 0
-94 -134 0
-95 -135 0
-96 -136 0
-93 -141 0
-94 -142 0
-95 -143 0
-96 -144 0
-97 -113 0
-98 -114 0
-99 -115 0
-100 -116 0
-97 -141 0
-98 -142 0
-99 -143 0
-100 -144 0
-97 -177 0
-98 -178 0
-99 -179 0
-100 -180 0
-101 -157 0
-102 -158 0
-103 -159 0
-104 -160 0
-101 -193 0
-102 -194 0
-103 -195 0
-104 -196 0
-105 -125 0
-106 -126 0
-107 -127 0
-108 -128 0
-105 -181 0
-106 -182 0
-107 -183 0
-108 -184 0
-105 -185 0
-106 -186 0
-107 -187 0
-108 -188 0
-105 -189 0
-106 -190 0
-107 -191 0
-108 -192 0
-109 -177 0
-110 -178 0
-111 -179 0
-112 -180 0
-109 -197 0
-110 -198 0
-111 -199 0
-112 -200 0
-113 -153 0
-114 -154 0
-115 -155 0
-116 -156 0
-113 -173 0
-114 -174 0
-115 -175 0
-116 -176 0
-113 -181 0
-114 -182 0
-115 -183 0
-116 -184 0
-113 -185 0
-114 -186 0
-115 -187 0
-116 -188 0
-117 -149 0
-118 -150 0
-119 -151 0
-120 -152 0
-117 -161 0
-118 -162 0
-119 -163 0
-120 -164 0
-121 -177 0
-122 -178 0
-123 -179 0
-124 -180 0
-121 -181 0
-122 -182 0
-123 -183 0
-124 -184 0
-125 -137 0
-126 -138 0
-127 -139 0
-128 -140 0
-125 -145 0
-126 -146 0
-127 -147 0
-128 -148 0
-125 -169 0
-126 -170 0
-127 -171 0
-128 -172 0
-125 -173 0
-126 -174 0
-127 -175 0
-128 -176 0
-125 -185 0
-126 -186 0
-127 -187 0
-128 -188 0
-129 -181 0
-130 -182 0
-131 -183 0
-132 -184 0
-129 -185 0
-130 -186 0
-131 -187 0
-132 -188 0
-129 -189 0
-130 -190 0
-131 -191 0
-132 -192 0
-133 -141 0
-134 -142 0
-135 -143 0
-136 -144 0
-133 -145 0
-134 -146 0
-135 -147 0
-136 -148 0
-133 -153 0
-134 -154 0
-135 -155 0
-136 -156 0
-133 -161 0
-134 -162 0
-135 -163 0
-136 -164 0
-133 -165 0
-134 -166 0
-135 -167 0
-136 -168 0
-133 -185 0
-134 -186 0
-135 -187 0
-136 -188 0
-133 -197 0
-134 -198 0
-135 -199 0
-136 -200 0
-137 -165 0
-138 -166 0
-139 -167 0
-140 -168 0
-137 -173 0
-138 -174 0
-139 -175 0
-140 -176 0
-145 -149 0
-146 -150 0
-147 -151 0
-148 -152 0
-145 -161 0
-146 -162 0
-147 -163 0
-148 -164 0
-145 -173 0
-146 -174 0
-147 -175 0
-148 -176 0
-149 -169 0
-150 -170 0
-151 -171 0
-152 -172 0
-149 -185 0
-150 -186 0
-151 -187 0
-152 -188 0
-149 -193 0
-150 -194 0
-151 -195 0
-152 -196 0
-153 -157 0
-154 -158 0
-155 -159 0
-156 -160 0
-153 -161 0
-154 -162 0
-155 -163 0
-156 -164 0
-153 -185 0
-154 -186 0
-155 -187 0
-156 -188 0
-157 -165 0
-158 -166 0
-159 -167 0
-160 -168 0
-161 -193 0
-162 -194 0
-163 -195 0
-164 -196 0
-165 -185 0
-166 -186 0
-167 -187 0
-168 -188 0
-165 -197 0
-166 -198 0
-167 -199 0
-168 -200 0
-177 -189 0
-178 -190 0
-179 -191 0
-180 -192 0
-177 -197 0
-178 -198 0
-179 -199 0
-180 -200 0